NH2.3N                                  
1.0
       14.8120002747         0.0000000000         0.0000000000
        0.0000000000         8.0120000839         0.0000000000
        0.0000000000         0.0000000000         6.9380002022
    N    H   Fe
    4    2   24
Direct
     0.608183957         0.004201000         0.976441029
     0.607112973         0.747521988         0.476657007
     0.608131999         0.498033999         0.978272982
     0.673363977         0.171799004         0.562565013
     0.707483008         0.226238994         0.450785981
     0.717414046         0.152673011         0.674738992
     0.331219995         0.500000000         0.833379988
     0.331219995         0.749999970         0.333380023
     0.424677018         0.749078970         0.996023997
     0.425828001         0.499972980         0.499882028
     0.535012022         0.496972007         0.178721988
     0.529776986         0.749954977         0.677435960
     0.380251003         0.500680975         0.164280998
     0.499128996         0.492922997         0.830699996
     0.377253999         0.750349980         0.665514001
     0.492092011         0.751083031         0.332307002
     0.593865966         0.749796963         0.991581055
     0.591988041         0.515503992         0.491518993
     0.331219995         0.000000000         0.833379988
     0.331219995         0.250000000         0.333380023
     0.425283012         0.250194020         0.996474031
     0.427222006         0.000608000         0.501428003
     0.537847999         0.003479000         0.181960003
     0.550224035         0.246792002         0.644242996
     0.381675978         0.999387944         0.165456991
     0.497218010         0.004486000         0.834386996
     0.386139002         0.249859990         0.665455994
     0.489508971         0.250393010         0.330175015
     0.594382014         0.251637000         0.997218015
     0.600280990         0.976809955         0.493785000
