NH2.3N                                  
   1.00000000000000     
    14.8120002747000008    0.0000000000000000    0.0000000000000000
     0.0000000000000000    8.0120000420000004    0.0000000000000000
     0.0000000000000000    0.0000000000000000    6.9380002021999996
   N    H    Fe
     4     2    24
Selective dynamics
Direct
  0.6081844454116038  0.0042010825265436  0.9764413188913347   T   T   T
  0.6071127077213218  0.7475221333590455  0.4766574423572650   T   T   T
  0.6081316793420799  0.4980344737574156  0.9782731606774895   T   T   T
  0.6733636373557162  0.1717993138605103  0.5625649681329014   T   T   T
  0.7074832596067904  0.2262387869904991  0.4507862590312486   T   T   T
  0.7174136470629972  0.1526727629761021  0.6747395061645866   T   T   T
  0.3312200009999984  0.5000000000000000  0.8333799990000017   F   F   F
  0.3312200009999984  0.7500000000000000  0.3333799990000017   F   F   F
  0.4246773192633259  0.7490793455655538  0.9960236097489533   T   T   T
  0.4258277907928040  0.4999731027473918  0.4998823395906667   T   T   T
  0.5350121710517693  0.4969724324256566  0.1787224431461568   T   T   T
  0.5297767059034300  0.7499545370487650  0.6774359342164061   T   T   T
  0.3802512136369194  0.5006814414857145  0.1642812216798932   T   T   T
  0.4991292258980795  0.4929232117560268  0.8306995264620826   T   T   T
  0.3772544108893933  0.7503502061554349  0.6655140455212600   T   T   T
  0.4920918966771929  0.7510831581979271  0.3323066072051037   T   T   T
  0.5938664889407484  0.7497965019396835  0.9915814124237273   T   T   T
  0.5919875714366957  0.5155041560531034  0.4915187932870462   T   T   T
  0.3312200009999984  0.0000000000000000  0.8333799990000017   F   F   F
  0.3312200009999984  0.2500000000000000  0.3333799990000017   F   F   F
  0.4252827625340956  0.2501943839828914  0.9964740789747547   T   T   T
  0.4272223626101108  0.0006082581130441  0.5014284014850926   T   T   T
  0.5378478625063107  0.0034788347808794  0.1819596042680851   T   T   T
  0.5502242029777149  0.2467919726322266  0.6442432792877184   T   T   T
  0.3816762458041902 -0.0006119881160805  0.1654571726894144   T   T   T
  0.4972183851068837  0.0044856631086485  0.8343872227691745   T   T   T
  0.3861385959584530  0.2498604773140862  0.6654562836568267   T   T   T
  0.4895089191716340  0.2503925390108624  0.3301748021208935   T   T   T
  0.5943822540319410  0.2516374815726574  0.9972178997523155   T   T   T
  0.6002812373303981 -0.0231903138189581  0.4937853767035015   T   T   T
 
  0.00000000E+00  0.00000000E+00  0.00000000E+00
  0.00000000E+00  0.00000000E+00  0.00000000E+00
  0.00000000E+00  0.00000000E+00  0.00000000E+00
  0.00000000E+00  0.00000000E+00  0.00000000E+00
  0.00000000E+00  0.00000000E+00  0.00000000E+00
  0.00000000E+00  0.00000000E+00  0.00000000E+00
  0.00000000E+00  0.00000000E+00  0.00000000E+00
  0.00000000E+00  0.00000000E+00  0.00000000E+00
  0.00000000E+00  0.00000000E+00  0.00000000E+00
  0.00000000E+00  0.00000000E+00  0.00000000E+00
  0.00000000E+00  0.00000000E+00  0.00000000E+00
  0.00000000E+00  0.00000000E+00  0.00000000E+00
  0.00000000E+00  0.00000000E+00  0.00000000E+00
  0.00000000E+00  0.00000000E+00  0.00000000E+00
  0.00000000E+00  0.00000000E+00  0.00000000E+00
  0.00000000E+00  0.00000000E+00  0.00000000E+00
  0.00000000E+00  0.00000000E+00  0.00000000E+00
  0.00000000E+00  0.00000000E+00  0.00000000E+00
  0.00000000E+00  0.00000000E+00  0.00000000E+00
  0.00000000E+00  0.00000000E+00  0.00000000E+00
  0.00000000E+00  0.00000000E+00  0.00000000E+00
  0.00000000E+00  0.00000000E+00  0.00000000E+00
  0.00000000E+00  0.00000000E+00  0.00000000E+00
  0.00000000E+00  0.00000000E+00  0.00000000E+00
  0.00000000E+00  0.00000000E+00  0.00000000E+00
  0.00000000E+00  0.00000000E+00  0.00000000E+00
  0.00000000E+00  0.00000000E+00  0.00000000E+00
  0.00000000E+00  0.00000000E+00  0.00000000E+00
  0.00000000E+00  0.00000000E+00  0.00000000E+00
  0.00000000E+00  0.00000000E+00  0.00000000E+00
