Fe
   1.00000000000000
    14.8120002747000008    0.0000000000000000    0.0000000000000000
    0.0000000000000000    8.0120000420000004    0.0000000000000000
    0.0000000000000000    0.0000000000000000    6.9380002021999996
   Fe
    1116
Cartesian
  -24.717970  -12.018000   -1.156010
  -24.717970  -12.018000    5.781991
  -24.717970  -12.018000   12.719991
  -24.717970   -4.006000   -1.156010
  -24.717970   -4.006000    5.781991
  -24.717970   -4.006000   12.719991
  -24.717970    4.006000   -1.156010
  -24.717970    4.006000    5.781991
  -24.717970    4.006000   12.719991
  -24.717970   12.018000   -1.156010
  -24.717970   12.018000    5.781991
  -24.717970   12.018000   12.719991
   -9.905970  -12.018000   -1.156010
   -9.905970  -12.018000    5.781991
   -9.905970  -12.018000   12.719991
   -9.905970   -4.006000   -1.156010
   -9.905970   -4.006000    5.781991
   -9.905970   -4.006000   12.719991
   -9.905970    4.006000   -1.156010
   -9.905970    4.006000    5.781991
   -9.905970    4.006000   12.719991
   -9.905970   12.018000   -1.156010
   -9.905970   12.018000    5.781991
   -9.905970   12.018000   12.719991
    4.906031  -12.018000   -1.156010
    4.906031  -12.018000    5.781991
    4.906031  -12.018000   12.719991
    4.906031   -4.006000   -1.156010
    4.906031   -4.006000    5.781991
    4.906031   -4.006000   12.719991
    4.906031    4.006000   -1.156010
    4.906031    4.006000    5.781991
    4.906031    4.006000   12.719991
    4.906031   12.018000   -1.156010
    4.906031   12.018000    5.781991
   19.718031  -12.018000   -1.156010
   19.718031  -12.018000    5.781991
   19.718031  -12.018000   12.719991
   19.718031   -4.006000   -1.156010
   19.718031   -4.006000    5.781991
   19.718031   -4.006000   12.719991
   19.718031    4.006000   -1.156010
   19.718031    4.006000    5.781991
   19.718031   12.018000   -1.156010
  -24.717970  -10.015000   -4.625010
  -24.717970  -10.015000    2.312991
  -24.717970  -10.015000    9.250991
  -24.717970   -2.003000   -4.625010
  -24.717970   -2.003000    2.312991
  -24.717970   -2.003000    9.250991
  -24.717970    6.009000   -4.625010
  -24.717970    6.009000    2.312991
  -24.717970    6.009000    9.250991
  -24.717970   14.021000   -4.625010
  -24.717970   14.021000    2.312991
  -24.717970   14.021000    9.250991
   -9.905970  -10.015000   -4.625010
   -9.905970  -10.015000    2.312991
   -9.905970  -10.015000    9.250991
   -9.905970   -2.003000   -4.625010
   -9.905970   -2.003000    2.312991
   -9.905970   -2.003000    9.250991
   -9.905970    6.009000   -4.625010
   -9.905970    6.009000    2.312991
   -9.905970    6.009000    9.250991
   -9.905970   14.021000   -4.625010
   -9.905970   14.021000    2.312991
   -9.905970   14.021000    9.250991
    4.906031  -10.015000   -4.625010
    4.906031  -10.015000    2.312991
    4.906031  -10.015000    9.250991
    4.906031   -2.003000   -4.625010
    4.906031   -2.003000    2.312991
    4.906031   -2.003000    9.250991
    4.906031    6.009000   -4.625010
    4.906031    6.009000    2.312991
    4.906031    6.009000    9.250991
    4.906031   14.021000   -4.625010
    4.906031   14.021000    2.312991
   19.718031  -10.015000   -4.625010
   19.718031  -10.015000    2.312991
   19.718031  -10.015000    9.250991
   19.718031   -2.003000   -4.625010
   19.718031   -2.003000    2.312991
   19.718031   -2.003000    9.250991
   19.718031    6.009000   -4.625010
   19.718031    6.009000    2.312991
   19.718031   14.021000   -4.625010
  -23.333685  -10.022379   -6.965586
  -23.333685  -10.022379   -0.027586
  -23.333685  -10.022379    6.910415
  -23.333685  -10.022379   13.848415
  -23.333685   -2.010379   -6.965586
  -23.333685   -2.010379   -0.027586
  -23.333685   -2.010379    6.910415
  -23.333685   -2.010379   13.848415
  -23.333685    6.001621   -6.965586
  -23.333685    6.001621   -0.027586
  -23.333685    6.001621    6.910415
  -23.333685    6.001621   13.848415
  -23.333685   14.013620   -6.965586
  -23.333685   14.013620   -0.027586
  -23.333685   14.013620    6.910415
  -23.333685   14.013620   13.848415
   -8.521685  -10.022379   -6.965586
   -8.521685  -10.022379   -0.027586
   -8.521685  -10.022379    6.910415
   -8.521685  -10.022379   13.848415
   -8.521685   -2.010379   -6.965586
   -8.521685   -2.010379   -0.027586
   -8.521685   -2.010379    6.910415
   -8.521685   -2.010379   13.848415
   -8.521685    6.001621   -6.965586
   -8.521685    6.001621   -0.027586
   -8.521685    6.001621    6.910415
   -8.521685    6.001621   13.848415
   -8.521685   14.013620   -6.965586
   -8.521685   14.013620   -0.027586
   -8.521685   14.013620    6.910415
    6.290316  -10.022379   -6.965586
    6.290316  -10.022379   -0.027586
    6.290316  -10.022379    6.910415
    6.290316  -10.022379   13.848415
    6.290316   -2.010379   -6.965586
    6.290316   -2.010379   -0.027586
    6.290316   -2.010379    6.910415
    6.290316   -2.010379   13.848415
    6.290316    6.001621   -6.965586
    6.290316    6.001621   -0.027586
    6.290316    6.001621    6.910415
    6.290316   14.013620   -6.965586
    6.290316   14.013620   -0.027586
   21.102316  -10.022379   -6.965586
   21.102316  -10.022379   -0.027586
   21.102316  -10.022379    6.910415
   21.102316  -10.022379   13.848415
   21.102316   -2.010379   -6.965586
   21.102316   -2.010379   -0.027586
   21.102316   -2.010379    6.910415
   21.102316    6.001621   -6.965586
   21.102316    6.001621   -0.027586
   21.102316   14.013620   -6.965586
  -23.316635  -12.018217   -3.469819
  -23.316635  -12.018217    3.468182
  -23.316635  -12.018217   10.406181
  -23.316635   -4.006217   -3.469819
  -23.316635   -4.006217    3.468182
  -23.316635   -4.006217   10.406181
  -23.316635    4.005784   -3.469819
  -23.316635    4.005784    3.468182
  -23.316635    4.005784   10.406181
  -23.316635   12.017784   -3.469819
  -23.316635   12.017784    3.468182
  -23.316635   12.017784   10.406181
   -8.504636  -12.018217   -3.469819
   -8.504636  -12.018217    3.468182
   -8.504636  -12.018217   10.406181
   -8.504636   -4.006217   -3.469819
   -8.504636   -4.006217    3.468182
   -8.504636   -4.006217   10.406181
   -8.504636    4.005784   -3.469819
   -8.504636    4.005784    3.468182
   -8.504636    4.005784   10.406181
   -8.504636   12.017784   -3.469819
   -8.504636   12.017784    3.468182
   -8.504636   12.017784   10.406181
    6.307364  -12.018217   -3.469819
    6.307364  -12.018217    3.468182
    6.307364  -12.018217   10.406181
    6.307364   -4.006217   -3.469819
    6.307364   -4.006217    3.468182
    6.307364   -4.006217   10.406181
    6.307364    4.005784   -3.469819
    6.307364    4.005784    3.468182
    6.307364    4.005784   10.406181
    6.307364   12.017784   -3.469819
    6.307364   12.017784    3.468182
   21.119366  -12.018217   -3.469819
   21.119366  -12.018217    3.468182
   21.119366  -12.018217   10.406181
   21.119366   -4.006217   -3.469819
   21.119366   -4.006217    3.468182
   21.119366   -4.006217   10.406181
   21.119366    4.005784   -3.469819
   21.119366    4.005784    3.468182
   21.119366   12.017784   -3.469819
  -21.699402  -12.042260   -5.698027
  -21.699402  -12.042260    1.239973
  -21.699402  -12.042260    8.177974
  -21.699402   -4.030260   -5.698027
  -21.699402   -4.030260    1.239973
  -21.699402   -4.030260    8.177974
  -21.699402    3.981740   -5.698027
  -21.699402    3.981740    1.239973
  -21.699402    3.981740    8.177974
  -21.699402   11.993740   -5.698027
  -21.699402   11.993740    1.239973
  -21.699402   11.993740    8.177974
   -6.887402  -12.042260   -5.698027
   -6.887402  -12.042260    1.239973
   -6.887402  -12.042260    8.177974
   -6.887402   -4.030260   -5.698027
   -6.887402   -4.030260    1.239973
   -6.887402   -4.030260    8.177974
   -6.887402    3.981740   -5.698027
   -6.887402    3.981740    1.239973
   -6.887402    3.981740    8.177974
   -6.887402   11.993740   -5.698027
   -6.887402   11.993740    1.239973
   -6.887402   11.993740    8.177974
    7.924598  -12.042260   -5.698027
    7.924598  -12.042260    1.239973
    7.924598  -12.042260    8.177974
    7.924598   -4.030260   -5.698027
    7.924598   -4.030260    1.239973
    7.924598   -4.030260    8.177974
    7.924598    3.981740   -5.698027
    7.924598    3.981740    1.239973
    7.924598    3.981740    8.177974
    7.924598   11.993740   -5.698027
    7.924598   11.993740    1.239973
   22.736599  -12.042260   -5.698027
   22.736599  -12.042260    1.239973
   22.736599  -12.042260    8.177974
   22.736599   -4.030260   -5.698027
   22.736599   -4.030260    1.239973
   22.736599   -4.030260    8.177974
   22.736599    3.981740   -5.698027
   22.736599    3.981740    1.239973
   22.736599   11.993740   -5.698027
  -21.776943  -10.015361   -2.237949
  -21.776943  -10.015361    4.700051
  -21.776943  -10.015361   11.638051
  -21.776943   -2.003361   -2.237949
  -21.776943   -2.003361    4.700051
  -21.776943   -2.003361   11.638051
  -21.776943    6.008639   -2.237949
  -21.776943    6.008639    4.700051
  -21.776943    6.008639   11.638051
  -21.776943   14.020639   -2.237949
  -21.776943   14.020639    4.700051
  -21.776943   14.020639   11.638051
   -6.964943  -10.015361   -2.237949
   -6.964943  -10.015361    4.700051
   -6.964943  -10.015361   11.638051
   -6.964943   -2.003361   -2.237949
   -6.964943   -2.003361    4.700051
   -6.964943   -2.003361   11.638051
   -6.964943    6.008639   -2.237949
   -6.964943    6.008639    4.700051
   -6.964943    6.008639   11.638051
   -6.964943   14.020639   -2.237949
   -6.964943   14.020639    4.700051
   -6.964943   14.020639   11.638051
    7.847057  -10.015361   -2.237949
    7.847057  -10.015361    4.700051
    7.847057  -10.015361   11.638051
    7.847057   -2.003361   -2.237949
    7.847057   -2.003361    4.700051
    7.847057   -2.003361   11.638051
    7.847057    6.008639   -2.237949
    7.847057    6.008639    4.700051
    7.847057    6.008639   11.638051
    7.847057   14.020639   -2.237949
    7.847057   14.020639    4.700051
   22.659058  -10.015361   -2.237949
   22.659058  -10.015361    4.700051
   22.659058  -10.015361   11.638051
   22.659058   -2.003361   -2.237949
   22.659058   -2.003361    4.700051
   22.659058   -2.003361   11.638051
   22.659058    6.008639   -2.237949
   22.659058    6.008639    4.700051
   22.659058   14.020639   -2.237949
  -23.991722  -12.012545   -5.798219
  -23.991722  -12.012545    1.139782
  -23.991722  -12.012545    8.077782
  -23.991722   -4.000544   -5.798219
  -23.991722   -4.000544    1.139782
  -23.991722   -4.000544    8.077782
  -23.991722    4.011456   -5.798219
  -23.991722    4.011456    1.139782
  -23.991722    4.011456    8.077782
  -23.991722   12.023457   -5.798219
  -23.991722   12.023457    1.139782
  -23.991722   12.023457    8.077782
   -9.179722  -12.012545   -5.798219
   -9.179722  -12.012545    1.139782
   -9.179722  -12.012545    8.077782
   -9.179722   -4.000544   -5.798219
   -9.179722   -4.000544    1.139782
   -9.179722   -4.000544    8.077782
   -9.179722    4.011456   -5.798219
   -9.179722    4.011456    1.139782
   -9.179722    4.011456    8.077782
   -9.179722   12.023457   -5.798219
   -9.179722   12.023457    1.139782
   -9.179722   12.023457    8.077782
    5.632278  -12.012545   -5.798219
    5.632278  -12.012545    1.139782
    5.632278  -12.012545    8.077782
    5.632278   -4.000544   -5.798219
    5.632278   -4.000544    1.139782
    5.632278   -4.000544    8.077782
    5.632278    4.011456   -5.798219
    5.632278    4.011456    1.139782
    5.632278    4.011456    8.077782
    5.632278   12.023457   -5.798219
    5.632278   12.023457    1.139782
   20.444279  -12.012545   -5.798219
   20.444279  -12.012545    1.139782
   20.444279  -12.012545    8.077782
   20.444279   -4.000544   -5.798219
   20.444279   -4.000544    1.139782
   20.444279   -4.000544    8.077782
   20.444279    4.011456   -5.798219
   20.444279    4.011456    1.139782
   20.444279   12.023457   -5.798219
  -22.230902  -12.074701   -1.174603
  -22.230902  -12.074701    5.763397
  -22.230902  -12.074701   12.701397
  -22.230902   -4.062701   -1.174603
  -22.230902   -4.062701    5.763397
  -22.230902   -4.062701   12.701397
  -22.230902    3.949299   -1.174603
  -22.230902    3.949299    5.763397
  -22.230902    3.949299   12.701397
  -22.230902   11.961299   -1.174603
  -22.230902   11.961299    5.763397
  -22.230902   11.961299   12.701397
   -7.418901  -12.074701   -1.174603
   -7.418901  -12.074701    5.763397
   -7.418901  -12.074701   12.701397
   -7.418901   -4.062701   -1.174603
   -7.418901   -4.062701    5.763397
   -7.418901   -4.062701   12.701397
   -7.418901    3.949299   -1.174603
   -7.418901    3.949299    5.763397
   -7.418901    3.949299   12.701397
   -7.418901   11.961299   -1.174603
   -7.418901   11.961299    5.763397
   -7.418901   11.961299   12.701397
    7.393099  -12.074701   -1.174603
    7.393099  -12.074701    5.763397
    7.393099  -12.074701   12.701397
    7.393099   -4.062701   -1.174603
    7.393099   -4.062701    5.763397
    7.393099   -4.062701   12.701397
    7.393099    3.949299   -1.174603
    7.393099    3.949299    5.763397
    7.393099    3.949299   12.701397
    7.393099   11.961299   -1.174603
    7.393099   11.961299    5.763397
   22.205099  -12.074701   -1.174603
   22.205099  -12.074701    5.763397
   22.205099  -12.074701   12.701397
   22.205099   -4.062701   -1.174603
   22.205099   -4.062701    5.763397
   22.205099   -4.062701   12.701397
   22.205099    3.949299   -1.174603
   22.205099    3.949299    5.763397
   22.205099   11.961299   -1.174603
  -24.036114  -10.012196   -2.320664
  -24.036114  -10.012196    4.617336
  -24.036114  -10.012196   11.555336
  -24.036114   -2.000196   -2.320664
  -24.036114   -2.000196    4.617336
  -24.036114   -2.000196   11.555336
  -24.036114    6.011804   -2.320664
  -24.036114    6.011804    4.617336
  -24.036114    6.011804   11.555336
  -24.036114   14.023804   -2.320664
  -24.036114   14.023804    4.617336
  -24.036114   14.023804   11.555336
   -9.224113  -10.012196   -2.320664
   -9.224113  -10.012196    4.617336
   -9.224113  -10.012196   11.555336
   -9.224113   -2.000196   -2.320664
   -9.224113   -2.000196    4.617336
   -9.224113   -2.000196   11.555336
   -9.224113    6.011804   -2.320664
   -9.224113    6.011804    4.617336
   -9.224113    6.011804   11.555336
   -9.224113   14.023804   -2.320664
   -9.224113   14.023804    4.617336
   -9.224113   14.023804   11.555336
    5.587886  -10.012196   -2.320664
    5.587886  -10.012196    4.617336
    5.587886  -10.012196   11.555336
    5.587886   -2.000196   -2.320664
    5.587886   -2.000196    4.617336
    5.587886   -2.000196   11.555336
    5.587886    6.011804   -2.320664
    5.587886    6.011804    4.617336
    5.587886    6.011804   11.555336
    5.587886   14.023804   -2.320664
    5.587886   14.023804    4.617336
   20.399887  -10.012196   -2.320664
   20.399887  -10.012196    4.617336
   20.399887  -10.012196   11.555336
   20.399887   -2.000196   -2.320664
   20.399887   -2.000196    4.617336
   20.399887   -2.000196   11.555336
   20.399887    6.011804   -2.320664
   20.399887    6.011804    4.617336
   20.399887   14.023804   -2.320664
  -22.335133  -10.006323   -4.632454
  -22.335133  -10.006323    2.305546
  -22.335133  -10.006323    9.243546
  -22.335133   -1.994323   -4.632454
  -22.335133   -1.994323    2.305546
  -22.335133   -1.994323    9.243546
  -22.335133    6.017677   -4.632454
  -22.335133    6.017677    2.305546
  -22.335133    6.017677    9.243546
  -22.335133   14.029677   -4.632454
  -22.335133   14.029677    2.305546
  -22.335133   14.029677    9.243546
   -7.523133  -10.006323   -4.632454
   -7.523133  -10.006323    2.305546
   -7.523133  -10.006323    9.243546
   -7.523133   -1.994323   -4.632454
   -7.523133   -1.994323    2.305546
   -7.523133   -1.994323    9.243546
   -7.523133    6.017677   -4.632454
   -7.523133    6.017677    2.305546
   -7.523133    6.017677    9.243546
   -7.523133   14.029677   -4.632454
   -7.523133   14.029677    2.305546
   -7.523133   14.029677    9.243546
    7.288867  -10.006323   -4.632454
    7.288867  -10.006323    2.305546
    7.288867  -10.006323    9.243546
    7.288867   -1.994323   -4.632454
    7.288867   -1.994323    2.305546
    7.288867   -1.994323    9.243546
    7.288867    6.017677   -4.632454
    7.288867    6.017677    2.305546
    7.288867    6.017677    9.243546
    7.288867   14.029677   -4.632454
    7.288867   14.029677    2.305546
   22.100868  -10.006323   -4.632454
   22.100868  -10.006323    2.305546
   22.100868  -10.006323    9.243546
   22.100868   -1.994323   -4.632454
   22.100868   -1.994323    2.305546
   22.100868   -1.994323    9.243546
   22.100868    6.017677   -4.632454
   22.100868    6.017677    2.305546
   22.100868   14.029677   -4.632454
  -20.827658  -10.016626   -6.996411
  -20.827658  -10.016626   -0.058411
  -20.827658  -10.016626    6.879590
  -20.827658  -10.016626   13.817590
  -20.827658   -2.004627   -6.996411
  -20.827658   -2.004627   -0.058411
  -20.827658   -2.004627    6.879590
  -20.827658   -2.004627   13.817590
  -20.827658    6.007373   -6.996411
  -20.827658    6.007373   -0.058411
  -20.827658    6.007373    6.879590
  -20.827658    6.007373   13.817590
  -20.827658   14.019373   -6.996411
  -20.827658   14.019373   -0.058411
  -20.827658   14.019373    6.879590
  -20.827658   14.019373   13.817590
   -6.015657  -10.016626   -6.996411
   -6.015657  -10.016626   -0.058411
   -6.015657  -10.016626    6.879590
   -6.015657  -10.016626   13.817590
   -6.015657   -2.004627   -6.996411
   -6.015657   -2.004627   -0.058411
   -6.015657   -2.004627    6.879590
   -6.015657   -2.004627   13.817590
   -6.015657    6.007373   -6.996411
   -6.015657    6.007373   -0.058411
   -6.015657    6.007373    6.879590
   -6.015657    6.007373   13.817590
   -6.015657   14.019373   -6.996411
   -6.015657   14.019373   -0.058411
   -6.015657   14.019373    6.879590
    8.796343  -10.016626   -6.996411
    8.796343  -10.016626   -0.058411
    8.796343  -10.016626    6.879590
    8.796343  -10.016626   13.817590
    8.796343   -2.004627   -6.996411
    8.796343   -2.004627   -0.058411
    8.796343   -2.004627    6.879590
    8.796343   -2.004627   13.817590
    8.796343    6.007373   -6.996411
    8.796343    6.007373   -0.058411
    8.796343    6.007373    6.879590
    8.796343   14.019373   -6.996411
    8.796343   14.019373   -0.058411
   23.608343  -10.016626   -6.996411
   23.608343  -10.016626   -0.058411
   23.608343  -10.016626    6.879590
   23.608343  -10.016626   13.817590
   23.608343   -2.004627   -6.996411
   23.608343   -2.004627   -0.058411
   23.608343   -2.004627    6.879590
   23.608343    6.007373   -6.996411
   23.608343    6.007373   -0.058411
   23.608343   14.019373   -6.996411
  -20.855473  -11.893782   -3.527841
  -20.855473  -11.893782    3.410159
  -20.855473  -11.893782   10.348159
  -20.855473   -3.881782   -3.527841
  -20.855473   -3.881782    3.410159
  -20.855473   -3.881782   10.348159
  -20.855473    4.130218   -3.527841
  -20.855473    4.130218    3.410159
  -20.855473    4.130218   10.348159
  -20.855473   12.142218   -3.527841
  -20.855473   12.142218    3.410159
  -20.855473   12.142218   10.348159
   -6.043473  -11.893782   -3.527841
   -6.043473  -11.893782    3.410159
   -6.043473  -11.893782   10.348159
   -6.043473   -3.881782   -3.527841
   -6.043473   -3.881782    3.410159
   -6.043473   -3.881782   10.348159
   -6.043473    4.130218   -3.527841
   -6.043473    4.130218    3.410159
   -6.043473    4.130218   10.348159
   -6.043473   12.142218   -3.527841
   -6.043473   12.142218    3.410159
   -6.043473   12.142218   10.348159
    8.768527  -11.893782   -3.527841
    8.768527  -11.893782    3.410159
    8.768527  -11.893782   10.348159
    8.768527   -3.881782   -3.527841
    8.768527   -3.881782    3.410159
    8.768527   -3.881782   10.348159
    8.768527    4.130218   -3.527841
    8.768527    4.130218    3.410159
    8.768527    4.130218   10.348159
    8.768527   12.142218   -3.527841
    8.768527   12.142218    3.410159
   23.580528  -11.893782   -3.527841
   23.580528  -11.893782    3.410159
   23.580528  -11.893782   10.348159
   23.580528   -3.881782   -3.527841
   23.580528   -3.881782    3.410159
   23.580528   -3.881782   10.348159
   23.580528    4.130218   -3.527841
   23.580528    4.130218    3.410159
   23.580528   12.142218   -3.527841
  -24.717970  -16.024000   -1.156010
  -24.717970  -16.024000    5.781991
  -24.717970  -16.024000   12.719991
  -24.717970   -8.012000   -1.156010
  -24.717970   -8.012000    5.781991
  -24.717970   -8.012000   12.719991
  -24.717970   -0.000000   -1.156010
  -24.717970    0.000000    5.781991
  -24.717970    0.000000   12.719991
  -24.717970    8.012000   -1.156010
  -24.717970    8.012000    5.781991
  -24.717970    8.012000   12.719991
  -24.717970   16.024000   -1.156010
  -24.717970   16.024000    5.781991
  -24.717970   16.024000   12.719991
   -9.905970  -16.024000   -1.156010
   -9.905970  -16.024000    5.781991
   -9.905970  -16.024000   12.719991
   -9.905970   -8.012000   -1.156010
   -9.905970   -8.012000    5.781991
   -9.905970   -8.012000   12.719991
   -9.905970   -0.000000   -1.156010
   -9.905970    0.000000    5.781991
   -9.905970    0.000000   12.719991
   -9.905970    8.012000   -1.156010
   -9.905970    8.012000    5.781991
   -9.905970    8.012000   12.719991
   -9.905970   16.024000   -1.156010
   -9.905970   16.024000    5.781991
    4.906031  -16.024000   -1.156010
    4.906031  -16.024000    5.781991
    4.906031  -16.024000   12.719991
    4.906031   -8.012000   -1.156010
    4.906031   -8.012000    5.781991
    4.906031   -8.012000   12.719991
    4.906031   -0.000000   -1.156010
    4.906031    0.000000    5.781991
    4.906031    0.000000   12.719991
    4.906031    8.012000   -1.156010
    4.906031    8.012000    5.781991
    4.906031   16.024000   -1.156010
   19.718031  -16.024000   -1.156010
   19.718031  -16.024000    5.781991
   19.718031  -16.024000   12.719991
   19.718031   -8.012000   -1.156010
   19.718031   -8.012000    5.781991
   19.718031   -8.012000   12.719991
   19.718031   -0.000000   -1.156010
   19.718031    0.000000    5.781991
   19.718031    8.012000   -1.156010
  -24.717970  -14.021000   -4.625010
  -24.717970  -14.021000    2.312991
  -24.717970  -14.021000    9.250991
  -24.717970   -6.009000   -4.625010
  -24.717970   -6.009000    2.312991
  -24.717970   -6.009000    9.250991
  -24.717970    2.003000   -4.625010
  -24.717970    2.003000    2.312991
  -24.717970    2.003000    9.250991
  -24.717970   10.015000   -4.625010
  -24.717970   10.015000    2.312991
  -24.717970   10.015000    9.250991
   -9.905970  -14.021000   -4.625010
   -9.905970  -14.021000    2.312991
   -9.905970  -14.021000    9.250991
   -9.905970   -6.009000   -4.625010
   -9.905970   -6.009000    2.312991
   -9.905970   -6.009000    9.250991
   -9.905970    2.003000   -4.625010
   -9.905970    2.003000    2.312991
   -9.905970    2.003000    9.250991
   -9.905970   10.015000   -4.625010
   -9.905970   10.015000    2.312991
   -9.905970   10.015000    9.250991
    4.906031  -14.021000   -4.625010
    4.906031  -14.021000    2.312991
    4.906031  -14.021000    9.250991
    4.906031   -6.009000   -4.625010
    4.906031   -6.009000    2.312991
    4.906031   -6.009000    9.250991
    4.906031    2.003000   -4.625010
    4.906031    2.003000    2.312991
    4.906031    2.003000    9.250991
    4.906031   10.015000   -4.625010
    4.906031   10.015000    2.312991
    4.906031   10.015000    9.250991
   19.718031  -14.021000   -4.625010
   19.718031  -14.021000    2.312991
   19.718031  -14.021000    9.250991
   19.718031   -6.009000   -4.625010
   19.718031   -6.009000    2.312991
   19.718031   -6.009000    9.250991
   19.718031    2.003000   -4.625010
   19.718031    2.003000    2.312991
   19.718031    2.003000    9.250991
   19.718031   10.015000   -4.625010
   19.718031   10.015000    2.312991
  -23.324709  -14.019445   -6.962463
  -23.324709  -14.019445   -0.024463
  -23.324709  -14.019445    6.913537
  -23.324709  -14.019445   13.851538
  -23.324709   -6.007445   -6.962463
  -23.324709   -6.007445   -0.024463
  -23.324709   -6.007445    6.913537
  -23.324709   -6.007445   13.851538
  -23.324709    2.004555   -6.962463
  -23.324709    2.004555   -0.024463
  -23.324709    2.004555    6.913537
  -23.324709    2.004555   13.851538
  -23.324709   10.016555   -6.962463
  -23.324709   10.016555   -0.024463
  -23.324709   10.016555    6.913537
  -23.324709   10.016555   13.851538
   -8.512709  -14.019445   -6.962463
   -8.512709  -14.019445   -0.024463
   -8.512709  -14.019445    6.913537
   -8.512709  -14.019445   13.851538
   -8.512709   -6.007445   -6.962463
   -8.512709   -6.007445   -0.024463
   -8.512709   -6.007445    6.913537
   -8.512709   -6.007445   13.851538
   -8.512709    2.004555   -6.962463
   -8.512709    2.004555   -0.024463
   -8.512709    2.004555    6.913537
   -8.512709    2.004555   13.851538
   -8.512709   10.016555   -6.962463
   -8.512709   10.016555   -0.024463
   -8.512709   10.016555    6.913537
   -8.512709   10.016555   13.851538
    6.299292  -14.019445   -6.962463
    6.299292  -14.019445   -0.024463
    6.299292  -14.019445    6.913537
    6.299292  -14.019445   13.851538
    6.299292   -6.007445   -6.962463
    6.299292   -6.007445   -0.024463
    6.299292   -6.007445    6.913537
    6.299292   -6.007445   13.851538
    6.299292    2.004555   -6.962463
    6.299292    2.004555   -0.024463
    6.299292    2.004555    6.913537
    6.299292    2.004555   13.851538
    6.299292   10.016555   -6.962463
    6.299292   10.016555   -0.024463
    6.299292   10.016555    6.913537
   21.111292  -14.019445   -6.962463
   21.111292  -14.019445   -0.024463
   21.111292  -14.019445    6.913537
   21.111292  -14.019445   13.851538
   21.111292   -6.007445   -6.962463
   21.111292   -6.007445   -0.024463
   21.111292   -6.007445    6.913537
   21.111292   -6.007445   13.851538
   21.111292    2.004555   -6.962463
   21.111292    2.004555   -0.024463
   21.111292    2.004555    6.913537
   21.111292   10.016555   -6.962463
   21.111292   10.016555   -0.024463
  -23.295988  -16.019129   -3.459093
  -23.295988  -16.019129    3.478908
  -23.295988  -16.019129   10.416908
  -23.295988   -8.007129   -3.459093
  -23.295988   -8.007129    3.478908
  -23.295988   -8.007129   10.416908
  -23.295988    0.004871   -3.459093
  -23.295988    0.004871    3.478908
  -23.295988    0.004871   10.416908
  -23.295988    8.016871   -3.459093
  -23.295988    8.016871    3.478908
  -23.295988    8.016871   10.416908
   -8.483988  -16.019129   -3.459093
   -8.483988  -16.019129    3.478908
   -8.483988  -16.019129   10.416908
   -8.483988   -8.007129   -3.459093
   -8.483988   -8.007129    3.478908
   -8.483988   -8.007129   10.416908
   -8.483988    0.004871   -3.459093
   -8.483988    0.004871    3.478908
   -8.483988    0.004871   10.416908
   -8.483988    8.016871   -3.459093
   -8.483988    8.016871    3.478908
   -8.483988    8.016871   10.416908
    6.328012  -16.019129   -3.459093
    6.328012  -16.019129    3.478908
    6.328012  -16.019129   10.416908
    6.328012   -8.007129   -3.459093
    6.328012   -8.007129    3.478908
    6.328012   -8.007129   10.416908
    6.328012    0.004871   -3.459093
    6.328012    0.004871    3.478908
    6.328012    0.004871   10.416908
    6.328012    8.016871   -3.459093
    6.328012    8.016871    3.478908
    6.328012    8.016871   10.416908
   21.140013  -16.019129   -3.459093
   21.140013  -16.019129    3.478908
   21.140013  -16.019129   10.416908
   21.140013   -8.007129   -3.459093
   21.140013   -8.007129    3.478908
   21.140013   -8.007129   10.416908
   21.140013    0.004871   -3.459093
   21.140013    0.004871    3.478908
   21.140013    0.004871   10.416908
   21.140013    8.016871   -3.459093
   21.140013    8.016871    3.478908
  -21.657396  -15.996126   -5.675562
  -21.657396  -15.996126    1.262439
  -21.657396  -15.996126    8.200438
  -21.657396   -7.984127   -5.675562
  -21.657396   -7.984127    1.262439
  -21.657396   -7.984127    8.200438
  -21.657396    0.027874   -5.675562
  -21.657396    0.027874    1.262439
  -21.657396    0.027874    8.200438
  -21.657396    8.039874   -5.675562
  -21.657396    8.039874    1.262439
  -21.657396    8.039874    8.200438
   -6.845396  -15.996126   -5.675562
   -6.845396  -15.996126    1.262439
   -6.845396  -15.996126    8.200438
   -6.845396   -7.984127   -5.675562
   -6.845396   -7.984127    1.262439
   -6.845396   -7.984127    8.200438
   -6.845396    0.027874   -5.675562
   -6.845396    0.027874    1.262439
   -6.845396    0.027874    8.200438
   -6.845396    8.039874   -5.675562
   -6.845396    8.039874    1.262439
   -6.845396    8.039874    8.200438
    7.966605  -15.996126   -5.675562
    7.966605  -15.996126    1.262439
    7.966605  -15.996126    8.200438
    7.966605   -7.984127   -5.675562
    7.966605   -7.984127    1.262439
    7.966605   -7.984127    8.200438
    7.966605    0.027874   -5.675562
    7.966605    0.027874    1.262439
    7.966605    0.027874    8.200438
    7.966605    8.039874   -5.675562
    7.966605    8.039874    1.262439
    7.966605    8.039874    8.200438
   22.778605  -15.996126   -5.675562
   22.778605  -15.996126    1.262439
   22.778605  -15.996126    8.200438
   22.778605   -7.984127   -5.675562
   22.778605   -7.984127    1.262439
   22.778605   -7.984127    8.200438
   22.778605    0.027874   -5.675562
   22.778605    0.027874    1.262439
   22.778605    0.027874    8.200438
   22.778605    8.039874   -5.675562
   22.778605    8.039874    1.262439
  -21.474083  -14.046702   -2.468242
  -21.474083  -14.046702    4.469758
  -21.474083  -14.046702   11.407759
  -21.474083   -6.034702   -2.468242
  -21.474083   -6.034702    4.469758