Ag fcc 111 4x4 3L                       
   1.00000000000000     
    11.5569496155000007    0.0000000000000000    0.0000000000000000
    -5.7784748077000003   10.0086119572999994    0.0000000000000000
     0.0000000000000000    0.0000000000000000   25.0000000000000000
   Ag   H    O 
    48     2     1
Selective dynamics
Direct
  0.0833333360000026  0.1666666719999981  0.3343697789999993   F   F   F
  0.0833333429999996  0.6666666870000029  0.3343697789999993   F   F   F
  0.5833333129999971  0.1666666719999981  0.3343697789999993   F   F   F
  0.5833333129999971  0.6666666870000029  0.3343697789999993   F   F   F
  0.3333333429999996  0.1666666719999981  0.3343697789999993   F   F   F
  0.3333333429999996  0.6666666870000029  0.3343697789999993   F   F   F
  0.8333333129999971  0.1666666719999981  0.3343697789999993   F   F   F
  0.8333333730000021  0.6666666870000029  0.3343697789999993   F   F   F
  0.0833333280000019  0.4166666269999979  0.3343697789999993   F   F   F
  0.0833333510000003  0.9166666269999979  0.3343697789999993   F   F   F
  0.5833333129999971  0.4166666269999979  0.3343697789999993   F   F   F
  0.5833333129999971  0.9166666269999979  0.3343697789999993   F   F   F
  0.3333333429999996  0.4166666269999979  0.3343697789999993   F   F   F
  0.3333333429999996  0.9166666269999979  0.3343697789999993   F   F   F
  0.8333333730000021  0.4166666269999979  0.3343697789999993   F   F   F
  0.8333333730000021  0.9166666269999979  0.3343697789999993   F   F   F
  0.1662275997406386  0.0827501095556324  0.4287418185429641   T   T   T
  0.1675969487776595  0.5829516130253871  0.4293893105465951   T   T   T
  0.6668332513999582  0.0827562327558780  0.4296024539220265   T   T   T
  0.6671876667563024  0.5838676685860446  0.4289538826719977   T   T   T
  0.4163828100819255  0.0833743922119630  0.4297399907757324   T   T   T
  0.4168592437890736  0.5829558642363065  0.4292244101988734   T   T   T
  0.9163249950365506  0.0827753684306500  0.4290009263198762   T   T   T
  0.9162117105944979  0.5832904261560721  0.4289256616797823   T   T   T
  0.1674709244261969  0.3333643479115550  0.4293548858204228   T   T   T
  0.1664654163574223  0.8334946195734646  0.4289946482550938   T   T   T
  0.6667930737650920  0.3337536064778576  0.4297703080253346   T   T   T
  0.6674021218558266  0.8336773438233528  0.4289071337830217   T   T   T
  0.4172549963150886  0.3329428362565968  0.4287241143893384   T   T   T
  0.4172094947945622  0.8340497161378350  0.4287713029519132   T   T   T
  0.9161647775629472  0.3328855262374409  0.4287776291138727   T   T   T
  0.9165516228175822  0.8332456502198198  0.4296031027286951   T   T   T
  0.5026880039857806  0.4997602069264018  0.5227601886337170   T   T   T
  0.5001418519816984  0.9998970136291387  0.5243109150081252   T   T   T
 -0.0017885321443257  0.4997354116025598  0.5222265633766229   T   T   T
  0.0003863584922187  0.0001055729679255  0.5241548513021285   T   T   T
  0.2498526097403563  0.4999254801116017  0.5241266081855625   T   T   T
  0.2499995683244259  0.0000359398372573  0.5252697213363863   T   T   T
  0.7499939725635858  0.4999503309067795  0.5253042535260494   T   T   T
  0.7501236340180827  0.9997071921222641  0.5252498744331849   T   T   T
  0.4995653804992098  0.2502975955612304  0.5253802493277716   T   T   T
  0.5027030205250164  0.7520673164967975  0.5226283622127018   T   T   T
  0.9986181213418008  0.2479129161419744  0.5225368502282547   T   T   T
  0.0001006042191744  0.7498600910452994  0.5237135105677814   T   T   T
  0.2507941810915257  0.2475754729015919  0.5224830913248690   T   T   T
  0.2509121778047531  0.7520264312613120  0.5224623243132573   T   T   T
  0.7499648230289465  0.2497664363031365  0.5241120743216758   T   T   T
  0.7492305179023169  0.7494365423514154  0.5247324610446856   T   T   T
  0.2986587236360426  0.4110964445753170  0.6225740113820174   T   T   T
  0.3859674814150599  0.5647573973548190  0.6241955898474205   T   T   T
  0.2928679846419658  0.4927549222004102  0.6222600467584293   T   T   T
