Ag fcc 111 2x2 4L                       
   1.00000000000000     
    11.5569496155000007    0.0000000000000000    0.0000000000000000
    -5.7784748077000003   10.0086119572999994    0.0000000000000000
     0.0000000000000000    0.0000000000000000   25.0000000000000000
   Ag   O
    48     1
Direct
  0.480334085544589  1.6643023496835243  8.644813682361807
  0.48052037569803996  6.6687730327497015  8.662574547058632
  3.3698668016620954  1.6643461781852005  8.644608133854348
  3.3698687896377995  6.669078968868622  8.64460762792021
  1.9277253683081776  1.673541356232305  8.718287006695034
  1.925472954026096  6.65605019629084  8.658074289992612
  4.819437601412815  1.6819012596999725  8.597750463727749
  4.806737731255026  6.656069132211592  8.658311308968969
  0.4878725287939947  4.166130019757684  8.658360484079887
  0.487866913013187  9.184135978522221  8.658359772762303
  3.3644977114516634  4.162068256837939  8.71851028475934
  3.3598065269767545  9.162321682694829  8.597450475532575
  1.9277321613219536  4.162019172892292  8.718274131046932
  1.9254654539641816  9.184221880591387  8.65807045954341
  4.806733267479468  4.166100273386465  8.658310092476107
  4.81943724950596  9.162282015080725  8.597742895775085
  0.9708524060251827  0.8537829019769669  11.03725012167742
  0.9655711297312006  5.828505974674727  10.97960219982568
  3.854213513839994  0.8251394356778629  10.967072068181057
  3.837567093295381  5.81913271728896  11.0372273742628
  2.4112030727229667  0.8538494511517248  11.037034987650028
  2.4112068257933443  5.819116202210894  11.03701618767494
  5.289830691361218  0.8251528203426117  10.967344681879961
  5.288650366260233  5.828429328979008  10.97970814661018
  0.9708590440308431  3.324422425580408  11.03723504381988
  0.9655757430641072  8.349186487087003  10.979600155572912
  3.837564101698569  3.3243766718880083  11.037231080101638
  3.8542104982395426  8.347204066600245  10.967057690994148
  2.406503800725362  3.3324079306607226  11.089819513133287
  2.4089941415881486  8.338885248172396  10.973564966695488
  5.294604513263421  3.3283418878900037  10.97399123933685
  5.2945981687652175  8.338848321699206  10.973993466091276
  -0.0011595281173043836  5.000763669225795  13.316915174200174
  5.761037821337098  9.989756730836627  13.304902418914988
  2.913323764586304  5.088409809576211  13.446863941627505
  2.895550431939663  9.9898327742325  13.3045052448601
  1.4324406608552436  5.019533191460709  13.343853337309143
  1.4324419215645603  -0.041810121339180224  13.343869656323552
  4.354523660076058  5.019458057055175  13.344033647885926
  4.332579187214365  10.004763684594193  13.380021212796368
  5.761041028448178  2.4853058617939774  13.304899313854426
  -0.0011642459035703086  7.502517981017762  13.316905295123243
  2.9133384618066764  2.454256198423618  13.446853692552848
  2.8955516438004945  7.530670445028202  13.304496256238165
  1.392515797956894  2.4542867815722564  13.446868624123313
  1.4433076926638666  7.502580954874243  13.3168337805798
  4.341226234901741  2.485238668501916  13.304833430081315
  4.34122729421719  7.530640959888338  13.304832580316793
  1.9277321613219536  4.162019172892292  14.67425964536126
