Ag fcc 111 2x2 4L
   1.00000000000000
    11.5569496155000007    0.0000000000000000    0.0000000000000000
    -5.7784748077000003   10.0086119572999994    0.0000000000000000
     0.0000000000000000    0.0000000000000000   25.0000000000000000
   Ag   O    H
    48     1     1
Selective dynamics
Direct
  0.0831247200000007  0.1662870350000034  0.3457925319999973   F   F   F
  0.0831569580000036  0.6663034560000014  0.3465029600000022   F   F   F
  0.5831758380000025  0.1662914160000000  0.3457843070000024   F   F   F
  0.5831761959999966  0.6663340329999983  0.3457843070000024   F   F   F
  0.3336045149999975  0.1672101320000010  0.3487314580000032   F   F   F
  0.3332147300000017  0.6650322679999974  0.3463229540000015   F   F   F
  0.8340328339999985  0.1680454019999971  0.3439100379999971   F   F   F
  0.8318350320000008  0.6650341750000024  0.3463324310000004   F   F   F
  0.0844292940000031  0.4162545200000025  0.3463343980000033   F   F   F
  0.0844283180000005  0.9176233410000023  0.3463343980000033   F   F   F
  0.5822466609999992  0.4158487019999981  0.3487403990000004   F   F   F
  0.5814348460000005  0.9154437779999967  0.3438979980000028   F   F   F
  0.3336057069999967  0.4158437849999999  0.3487309810000028   F   F   F
  0.3332134489999987  0.9176319239999984  0.3463228339999986   F   F   F
  0.8318342569999970  0.4162515399999975  0.3463324310000004   F   F   F
  0.8340327740000006  0.9154398439999980  0.3439097400000009   F   F   F
  0.1682753321962567  0.0840969559439480  0.4409644374267890   T   T   T
  0.1680300312925148  0.5829018440436116  0.4400951884756611   T   T   T
  0.6661628668959998  0.0816229166443847  0.4386489233772195   T   T   T
  0.6628899854031371  0.5802991420058615  0.4420086327662516   T   T   T
  0.4167593182677375  0.0850095928344190  0.4413806834259375   T   T   T
  0.4162151449435301  0.5796144622991380  0.4426518116606960   T   T   T
  0.9148877852385446  0.0804953763733611  0.4375556850214430   T   T   T
  0.9156588541374079  0.5834104055215409  0.4390327672060057   T   T   T
  0.1686473839335426  0.3338754297586332  0.4409084996752525   T   T   T
  0.1683616834415193  0.8335380945181813  0.4392437156463948   T   T   T
  0.6647660061573790  0.3317057697380241  0.4411487097021353   T   T   T
  0.6646070427090175  0.8305990267037148  0.4387851687304578   T   T   T
  0.4166493494482591  0.3333939622792744  0.4449132641721592   T   T   T
  0.4167004468486634  0.8300842639704996  0.4394196439411536   T   T   T
  0.9153075414079977  0.3312628227614955  0.4383150047246025   T   T   T
  0.9162683910749454  0.8322172725230498  0.4383470403030050   T   T   T
  0.9966121894165911  0.4987445667574511  0.5320803898517762   T   T   T
  0.9965839054582526  0.9955014972091005  0.5321455364191422   T   T   T
  0.5089013378912125  0.5044909882798432  0.5406518795173502   T   T   T
  0.5004879881465282  0.9968022588872877  0.5342026099364934   T   T   T
  0.2377165348489698  0.4944644801134379  0.5346036060752748   T   T   T
  0.2495178048467191  0.9955427571886211  0.5345115756484544   T   T   T
  0.7549300933515191  0.5015965084510803  0.5331657494195349   T   T   T
  0.7507915885992165 -0.0000056980529475  0.5324607959289622   T   T   T
  0.9937854599614590  0.2451975551305079  0.5304334447935169   T   T   T
  0.0021679762362277  0.7498688987419413  0.5334162598435542   T   T   T
  0.5100621681107431  0.2444706555950986  0.5362895756856137   T   T   T
  0.5078741923761710  0.7563140338343113  0.5324713918615717   T   T   T
  0.2360730653733494  0.2423478229366011  0.5348358154863620   T   T   T
  0.2495540418624601  0.7517798437448453  0.5332889186398346   T   T   T
  0.7522859083131844  0.2467453711222595  0.5330578384053027   T   T   T
  0.7552849673865805  0.7510920602716618  0.5319313425381516   T   T   T
   0.5822466609999992  0.4158487019999981  0.5931203639218621   T   T   T
   0.5822466609999992  0.4158487019999981  0.6319066494734989   T   T   T

