Ni 
 1.0000000000000000
     9.9560634791065894    0.0000000000000000    0.0000000000000000
     4.9780317395532947    8.6222038945967867    0.0000000000000000
     0.0000000000000000    0.0000000000000000   30.0000000000000000
  64
Cartesian
  0.0000000000000000  0.0000000000000000 15.0000000000000000
  2.4890158697766473  0.0000000000000000 15.0000000000000000
  4.9780317395532947  0.0000000000000000 15.0000000000000000
  7.4670476093299420  0.0000000000000000 15.0000000000000000
  1.2445079348883237  2.1555509736491967 15.0000000000000000
  3.7335238046649710  2.1555509736491967 15.0000000000000000
  6.2225396744416184  2.1555509736491967 15.0000000000000000
  8.7115555442182657  2.1555509736491967 15.0000000000000000
  2.4890158697766473  4.3111019472983934 15.0000000000000000
  4.9780317395532947  4.3111019472983934 15.0000000000000000
  7.4670476093299420  4.3111019472983934 15.0000000000000000
  9.9560634791065894  4.3111019472983934 15.0000000000000000
  3.7335238046649710  6.4666529209475900 15.0000000000000000
  6.2225396744416184  6.4666529209475900 15.0000000000000000
  8.7115555442182657  6.4666529209475900 15.0000000000000000
 11.2005714139949131  6.4666529209475900 15.0000000000000000
  1.2445079348883237  0.7185169912163989 17.0322729475474830
  3.7335238046649706  0.7185169912163989 17.0322729475474830
  6.2225396744416193  0.7185169912163989 17.0322729475474830
  8.7115555442182657  0.7185169912163989 17.0322729475474830
  2.4890158697766473  2.8740679648655956 17.0322729475474830
  4.9780317395532947  2.8740679648655956 17.0322729475474830
  7.4670476093299420  2.8740679648655956 17.0322729475474830
  9.9560634791065894  2.8740679648655956 17.0322729475474830
  3.7335238046649710  5.0296189385147922 17.0322729475474830
  6.2225396744416184  5.0296189385147922 17.0322729475474830
  8.7115555442182675  5.0296189385147922 17.0322729475474830
 11.2005714139949148  5.0296189385147922 17.0322729475474830
  4.9780317395532947  7.1851699121639889 17.0322729475474830
  7.4670476093299420  7.1851699121639889 17.0322729475474830
  9.9560634791065894  7.1851699121639889 17.0322729475474830
 12.4450793488832367  7.1851699121639889 17.0322729475474830
  0.0000000000000000  1.4370339824327978 19.0645458950949660
  2.4890158697766473  1.4370339824327978 19.0645458950949660
  4.9780317395532947  1.4370339824327978 19.0645458950949660
  7.4670476093299412  1.4370339824327978 19.0645458950949660
  1.2445079348883235  3.5925849560819940 19.0645458950949660
  3.7335238046649710  3.5925849560819940 19.0645458950949660
  6.2225396744416184  3.5925849560819940 19.0645458950949660
  8.7115555442182639  3.5925849560819940 19.0645458950949660
  2.4890158697766473  5.7481359297311911 19.0645458950949660
  4.9780317395532947  5.7481359297311911 19.0645458950949660
  7.4670476093299420  5.7481359297311911 19.0645458950949660
  9.9560634791065894  5.7481359297311911 19.0645458950949660
  3.7335238046649710  7.9036869033803878 19.0645458950949660
  6.2225396744416184  7.9036869033803878 19.0645458950949660
  8.7115555442182657  7.9036869033803878 19.0645458950949660
 11.2005714139949113  7.9036869033803878 19.0645458950949660
  0.0000000000000000  0.0000000000000000 21.0968188426424490
  2.4890158697766473  0.0000000000000000 21.0968188426424490
  4.9780317395532947  0.0000000000000000 21.0968188426424490
  7.4670476093299420  0.0000000000000000 21.0968188426424490
  1.2445079348883237  2.1555509736491967 21.0968188426424490
  3.7335238046649710  2.1555509736491967 21.0968188426424490
  6.2225396744416184  2.1555509736491967 21.0968188426424490
  8.7115555442182657  2.1555509736491967 21.0968188426424490
  2.4890158697766473  4.3111019472983934 21.0968188426424490
  4.9780317395532947  4.3111019472983934 21.0968188426424490
  7.4670476093299420  4.3111019472983934 21.0968188426424490
  9.9560634791065894  4.3111019472983934 21.0968188426424490
  3.7335238046649710  6.4666529209475900 21.0968188426424490
  6.2225396744416184  6.4666529209475900 21.0968188426424490
  8.7115555442182657  6.4666529209475900 21.0968188426424490
 11.2005714139949131  6.4666529209475900 21.0968188426424490
