Ni 
 1.0000000000000000
    14.0800000000000001    0.0000000000000000    0.0000000000000000
     0.0000000000000000    9.9560634791065894    0.0000000000000000
     0.0000000000000000    0.0000000000000000   30.0000000000000000
  64
Cartesian
  1.7600000000000000  1.2445079348883237 15.0000000000000000
  5.2800000000000002  1.2445079348883237 15.0000000000000000
  8.8000000000000007  1.2445079348883237 15.0000000000000000
 12.3200000000000003  1.2445079348883237 15.0000000000000000
  1.7600000000000000  3.7335238046649710 15.0000000000000000
  5.2800000000000002  3.7335238046649710 15.0000000000000000
  8.8000000000000007  3.7335238046649710 15.0000000000000000
 12.3200000000000003  3.7335238046649710 15.0000000000000000
  1.7600000000000000  6.2225396744416184 15.0000000000000000
  5.2800000000000002  6.2225396744416184 15.0000000000000000
  8.8000000000000007  6.2225396744416184 15.0000000000000000
 12.3200000000000003  6.2225396744416184 15.0000000000000000
  1.7600000000000000  8.7115555442182657 15.0000000000000000
  5.2800000000000002  8.7115555442182657 15.0000000000000000
  8.8000000000000007  8.7115555442182657 15.0000000000000000
 12.3200000000000003  8.7115555442182657 15.0000000000000000
  0.0000000000000000  0.0000000000000000 16.2445079348883255
  3.5200000000000000  0.0000000000000000 16.2445079348883255
  7.0400000000000000  0.0000000000000000 16.2445079348883255
 10.5600000000000005  0.0000000000000000 16.2445079348883255
  0.0000000000000000  2.4890158697766473 16.2445079348883255
  3.5200000000000000  2.4890158697766473 16.2445079348883255
  7.0400000000000000  2.4890158697766473 16.2445079348883255
 10.5600000000000005  2.4890158697766473 16.2445079348883255
  0.0000000000000000  4.9780317395532947 16.2445079348883255
  3.5200000000000000  4.9780317395532947 16.2445079348883255
  7.0400000000000000  4.9780317395532947 16.2445079348883255
 10.5600000000000005  4.9780317395532947 16.2445079348883255
  0.0000000000000000  7.4670476093299420 16.2445079348883255
  3.5200000000000000  7.4670476093299420 16.2445079348883255
  7.0400000000000000  7.4670476093299420 16.2445079348883255
 10.5600000000000005  7.4670476093299420 16.2445079348883255
  1.7600000000000000  1.2445079348883237 17.4890158697766473
  5.2800000000000002  1.2445079348883237 17.4890158697766473
  8.8000000000000007  1.2445079348883237 17.4890158697766473
 12.3200000000000003  1.2445079348883237 17.4890158697766473
  1.7600000000000000  3.7335238046649710 17.4890158697766473
  5.2800000000000002  3.7335238046649710 17.4890158697766473
  8.8000000000000007  3.7335238046649710 17.4890158697766473
 12.3200000000000003  3.7335238046649710 17.4890158697766473
  1.7600000000000000  6.2225396744416184 17.4890158697766473
  5.2800000000000002  6.2225396744416184 17.4890158697766473
  8.8000000000000007  6.2225396744416184 17.4890158697766473
 12.3200000000000003  6.2225396744416184 17.4890158697766473
  1.7600000000000000  8.7115555442182657 17.4890158697766473
  5.2800000000000002  8.7115555442182657 17.4890158697766473
  8.8000000000000007  8.7115555442182657 17.4890158697766473
 12.3200000000000003  8.7115555442182657 17.4890158697766473
  0.0000000000000000  0.0000000000000000 18.7335238046649692
  3.5200000000000000  0.0000000000000000 18.7335238046649692
  7.0400000000000000  0.0000000000000000 18.7335238046649692
 10.5600000000000005  0.0000000000000000 18.7335238046649692
  0.0000000000000000  2.4890158697766473 18.7335238046649692
  3.5200000000000000  2.4890158697766473 18.7335238046649692
  7.0400000000000000  2.4890158697766473 18.7335238046649692
 10.5600000000000005  2.4890158697766473 18.7335238046649692
  0.0000000000000000  4.9780317395532947 18.7335238046649692
  3.5200000000000000  4.9780317395532947 18.7335238046649692
  7.0400000000000000  4.9780317395532947 18.7335238046649692
 10.5600000000000005  4.9780317395532947 18.7335238046649692
  0.0000000000000000  7.4670476093299420 18.7335238046649692
  3.5200000000000000  7.4670476093299420 18.7335238046649692
  7.0400000000000000  7.4670476093299420 18.7335238046649692
 10.5600000000000005  7.4670476093299420 18.7335238046649692
