NH2.3N                                  
1.0
       14.8120002747         0.0000000000         0.0000000000
        0.0000000000         8.0120000839         0.0000000000
        0.0000000000         0.0000000000         6.9380002022
    N    H   Fe
    4    2   24
Cartesian
     9.008420944         0.033658411         6.774548054
     8.992557526         5.989146233         3.307046413
     9.007651329         3.990248442         6.787258148
     9.973867416         1.376453638         3.903076172
    10.479238510         1.812626839         3.127553225
    10.626337051         1.223216176         4.681339264
     4.906030655         4.006000042         5.781990528
     4.906030655         6.008999825         2.312990665
     6.290316105         6.001620770         6.910414696
     6.307364464         4.005783558         3.468181610
     7.924598217         3.981739759         1.239973187
     7.847056866         6.008639336         4.700050831
     5.632277966         4.011456013         1.139781594
     7.393098831         3.949299097         5.763396740
     5.587886333         6.011804104         4.617336273
     7.288866997         6.017677307         2.305546045
     8.796342850         6.007373333         6.879589558
     8.768527031         4.130218029         3.410158873
     4.906030655         0.000000000         5.781990528
     4.906030655         2.003000021         2.312990665
     6.299292088         2.004554510         6.913537025
     6.328012466         0.004871296         3.478907585
     7.966604710         0.027873747         1.262438536
     8.149918556         1.977297544         4.469758034
     5.653384686         8.007096291         1.147940636
     7.364793301         0.035941835         5.788977146
     5.719491005         2.001878262         4.616933823
     7.250607014         2.006148815         2.290754318
     8.803986549         2.016115665         6.918698788
     8.891362190         7.826201439         3.425880432
