SYSTEM=Fe111_NH2.3N     # Job description
GGA=PE                          #
NPAR=4
ISMEAR=2                        # Tetrahedron method with Bloechl corrections
SIGMA=0.2
NELM=200                        # Maximum number of SCF cycles
EDIFF=1.0E-06                   # Convergence criteria for SCF Energy
PREC=Accurate                   # Precision control
ENCUT=400
IBRION=2                        # CG Geom Opt
ISIF=2                          # Relax all 
NSW=300                         # Maximum number of Geom Opt steps
ISPIN=2
MAGMOM=6*0 24*2.2
#IDIPOL=3
#LDIPOL=.TRUE.
#IVDW=11
EDIFFG=-1.0E-03                 # Convergence criteria for Geom Opt forces
LWAVE=.FALSE.                   # !No wavefunction output file, too big
LCHARG=.FALSE.                  # !No charge density output file, too big
NWRITE=0
ADDGRID =.TRUE.
NELMIN=6
