Fe 
 1.0000000000000000
    16.2351716960431318    0.0000000000000000    0.0000000000000000
     8.1175858480215659   14.0600711235754421    0.0000000000000000
     0.0000000000000000    0.0000000000000000   17.4854929088613389
Fe
  64
Cartesian
  0.0000000000000000  0.0000000000000000  7.5000000000000000
  4.0587929240107830  0.0000000000000000  7.5000000000000000
  8.1175858480215659  0.0000000000000000  7.5000000000000000
 12.1763787720323489  0.0000000000000000  7.5000000000000000
  2.0293964620053915  3.5150177808938605  7.5000000000000000
  6.0881893860161744  3.5150177808938605  7.5000000000000000
 10.1469823100269565  3.5150177808938605  7.5000000000000000
 14.2057752340377412  3.5150177808938605  7.5000000000000000
  4.0587929240107830  7.0300355617877210  7.5000000000000000
  8.1175858480215659  7.0300355617877210  7.5000000000000000
 12.1763787720323489  7.0300355617877210  7.5000000000000000
 16.2351716960431318  7.0300355617877210  7.5000000000000000
  6.0881893860161744 10.5450533426815820  7.5000000000000000
 10.1469823100269565 10.5450533426815820  7.5000000000000000
 14.2057752340377412 10.5450533426815820  7.5000000000000000
 18.2645681580485224 10.5450533426815820  7.5000000000000000
  2.0293964620053915  1.1716725936312868  8.3284976362871124
  6.0881893860161744  1.1716725936312868  8.3284976362871124
 10.1469823100269583  1.1716725936312868  8.3284976362871124
 14.2057752340377412  1.1716725936312868  8.3284976362871124
  4.0587929240107830  4.6866903745251474  8.3284976362871124
  8.1175858480215659  4.6866903745251474  8.3284976362871124
 12.1763787720323489  4.6866903745251474  8.3284976362871124
 16.2351716960431318  4.6866903745251474  8.3284976362871124
  6.0881893860161744  8.2017081554190092  8.3284976362871124
 10.1469823100269583  8.2017081554190092  8.3284976362871124
 14.2057752340377412  8.2017081554190092  8.3284976362871124
 18.2645681580485260  8.2017081554190092  8.3284976362871124
  8.1175858480215659 11.7167259363128693  8.3284976362871124
 12.1763787720323489 11.7167259363128693  8.3284976362871124
 16.2351716960431318 11.7167259363128693  8.3284976362871124
 20.2939646200539165 11.7167259363128693  8.3284976362871124
 -0.0000000000000000  2.3433451872625737  9.1569952725742265
  4.0587929240107830  2.3433451872625737  9.1569952725742265
  8.1175858480215659  2.3433451872625737  9.1569952725742265
 12.1763787720323489  2.3433451872625737  9.1569952725742265
  2.0293964620053910  5.8583629681564338  9.1569952725742265
  6.0881893860161744  5.8583629681564338  9.1569952725742265
 10.1469823100269565  5.8583629681564338  9.1569952725742265
 14.2057752340377395  5.8583629681564338  9.1569952725742265
  4.0587929240107830  9.3733807490502947  9.1569952725742265
  8.1175858480215659  9.3733807490502947  9.1569952725742265
 12.1763787720323489  9.3733807490502947  9.1569952725742265
 16.2351716960431318  9.3733807490502947  9.1569952725742265
  6.0881893860161744 12.8883985299441548  9.1569952725742265
 10.1469823100269565 12.8883985299441548  9.1569952725742265
 14.2057752340377395 12.8883985299441548  9.1569952725742265
 18.2645681580485224 12.8883985299441548  9.1569952725742265
  0.0000000000000000  0.0000000000000000  9.9854929088613389
  4.0587929240107830  0.0000000000000000  9.9854929088613389
  8.1175858480215659  0.0000000000000000  9.9854929088613389
 12.1763787720323489  0.0000000000000000  9.9854929088613389
  2.0293964620053915  3.5150177808938605  9.9854929088613389
  6.0881893860161744  3.5150177808938605  9.9854929088613389
 10.1469823100269565  3.5150177808938605  9.9854929088613389
 14.2057752340377412  3.5150177808938605  9.9854929088613389
  4.0587929240107830  7.0300355617877210  9.9854929088613389
  8.1175858480215659  7.0300355617877210  9.9854929088613389
 12.1763787720323489  7.0300355617877210  9.9854929088613389
 16.2351716960431318  7.0300355617877210  9.9854929088613389
  6.0881893860161744 10.5450533426815820  9.9854929088613389
 10.1469823100269565 10.5450533426815820  9.9854929088613389
 14.2057752340377412 10.5450533426815820  9.9854929088613389
 18.2645681580485224 10.5450533426815820  9.9854929088613389
